p cnf 1422 2203
10 -20 -58 -93 0
43 -65 -69 -81 0
5 -18 35 59 0
-1 -10 42 101 0
-1 -10 42 -101 0
-14 -16 22 70 0
-11 -17 52 102 0
-11 -17 52 -102 0
-3 -13 28 103 0
28 -39 -103 104 0
-39 78 -104 105 0
78 79 -88 -105 0
48 72 89 106 0
89 99 100 -106 0
2 42 -81 107 0
-81 84 -107 108 0
84 -90 93 -108 0
8 -15 39 109 0
39 48 -86 -109 0
92 -99 110 111 0
92 -99 110 -111 0
92 -99 -110 111 0
92 -99 -110 -111 0
3 -10 -13 112 0
-13 34 -112 113 0
34 -42 -113 114 0
-42 -59 77 -114 0
-1 -31 68 115 0
68 -72 -115 116 0
-72 -94 97 -116 0
-6 -46 49 117 0
49 -61 -117 118 0
-61 74 -118 119 0
74 -79 -119 120 0
-79 -95 98 -120 0
33 45 -67 121 0
-67 -76 -121 122 0
-76 87 -88 -122 0
25 -53 55 94 0
43 98 123 124 0
43 98 123 -124 0
43 98 -123 124 0
43 98 -123 -124 0
-33 -62 -88 125 0
-33 -62 -88 -125 0
-3 -81 96 126 0
-3 -81 96 -126 0
-14 -26 55 -61 0
-8 14 21 127 0
21 48 -127 128 0
48 -52 -128 129 0
-52 -71 -129 130 0
-71 -80 100 -130 0
-48 56 -94 131 0
-48 56 -94 -131 0
-42 55 80 132 0
-42 55 80 -132 0
9 24 -30 133 0
-30 -40 47 -133 0
19 55 65 -93 0
-1 72 -73 -95 0
-34 -85 -96 134 0
-34 -85 -96 -134 0
-3 -79 135 136 0
-3 -79 135 -136 0
-3 -79 -135 136 0
-3 -79 -135 -136 0
5 23 75 -88 0
-5 28 33 137 0
33 49 -137 138 0
49 51 -138 139 0
51 -59 -139 140 0
-59 -77 -140 141 0
-77 80 -90 -141 0
30 35 50 142 0
50 -87 -99 -142 0
-4 90 143 144 0
-4 90 143 -144 0
-4 90 -143 144 0
-4 90 -143 -144 0
3 48 -68 145 0
-68 82 -84 -145 0
90 -91 146 147 0
90 -91 146 -147 0
90 -91 -146 147 0
90 -91 -146 -147 0
1 -22 148 149 0
1 -22 148 -149 0
1 -22 -148 149 0
1 -22 -148 -149 0
12 23 -25 150 0
-25 -29 -150 151 0
-29 56 -151 152 0
56 72 -152 153 0
72 74 -153 154 0
74 -96 99 -154 0
-17 30 79 -84 0
-22 -57 -96 100 0
-42 -54 74 -84 0
37 -73 -82 88 0
5 -25 -34 155 0
-34 -41 -155 156 0
-41 45 -156 157 0
45 -58 -157 158 0
-58 82 84 -158 0
-7 -24 27 159 0
27 -42 92 -159 0
-17 -67 -96 160 0
-17 -67 -96 -160 0
-18 38 -43 161 0
-43 46 -85 -161 0
-10 14 17 162 0
17 -19 -162 163 0
-19 -28 -163 164 0
-28 -54 -164 165 0
-54 -65 76 -165 0
3 8 15 166 0
15 -64 -166 167 0
-64 69 -167 168 0
69 -82 100 -168 0
9 47 169 170 0
9 47 169 -170 0
9 47 -169 170 0
9 47 -169 -170 0
-12 22 40 171 0
40 47 48 -171 0
2 9 -42 172 0
-42 45 -172 173 0
45 -58 -75 -173 0
-37 91 99 174 0
-37 91 99 -174 0
-4 7 21 175 0
21 -32 -175 176 0
-32 54 -176 177 0
54 73 -177 178 0
73 -79 -178 179 0
-79 -96 -98 -179 0
82 -99 180 181 0
82 -99 180 -181 0
82 -99 -180 181 0
82 -99 -180 -181 0
-15 -74 182 183 0
-15 -74 182 -183 0
-15 -74 -182 183 0
-15 -74 -182 -183 0
-6 -32 47 184 0
47 -72 -184 185 0
-72 90 -185 186 0
90 93 99 -186 0
32 43 -77 187 0
32 43 -77 -187 0
6 7 48 188 0
48 -62 -188 189 0
-62 97 -99 -189 0
2 14 36 190 0
36 45 85 -190 0
1 -4 46 87 0
-30 -34 191 192 0
-30 -34 191 -192 0
-30 -34 -191 192 0
-30 -34 -191 -192 0
38 69 -86 193 0
38 69 -86 -193 0
-20 42 -65 194 0
-65 -69 -81 -194 0
7 10 13 195 0
13 -16 -195 196 0
-16 -60 -196 197 0
-60 62 -197 198 0
62 -63 -198 199 0
-63 73 -199 200 0
73 -77 -200 201 0
-77 -80 84 -201 0
22 -33 -44 83 0
23 41 -46 202 0
23 41 -46 -202 0
-11 -50 55 203 0
55 59 -203 204 0
59 -71 -204 205 0
-71 73 77 -205 0
-14 31 -56 206 0
-56 78 -206 207 0
78 82 94 -207 0
24 34 -43 -95 0
20 24 -27 -75 0
24 -39 50 208 0
50 56 -208 209 0
56 59 -209 210 0
59 61 -210 211 0
61 -75 -91 -211 0
-3 -10 -29 212 0
-29 -53 -212 213 0
-53 -58 -71 -213 0
35 40 -43 214 0
-43 -56 -98 -214 0
24 -26 -29 215 0
-29 -50 -73 -215 0
5 -15 62 216 0
5 -15 62 -216 0
9 17 81 217 0
9 17 81 -217 0
55 56 -71 218 0
55 56 -71 -218 0
23 -32 53 69 0
14 -26 30 219 0
30 32 -219 220 0
32 -35 43 -220 0
24 30 -67 221 0
24 30 -67 -221 0
-15 -89 222 223 0
-15 -89 222 -223 0
-15 -89 -222 223 0
-15 -89 -222 -223 0
-3 14 15 224 0
15 -56 -224 225 0
-56 -60 -225 226 0
-60 -64 91 -226 0
-15 28 -93 227 0
-15 28 -93 -227 0
11 45 -50 228 0
-50 -67 -228 229 0
-67 74 -229 230 0
74 79 -230 231 0
79 -84 94 -231 0
31 -33 -38 232 0
-38 42 -232 233 0
42 48 -233 234 0
48 59 68 -234 0
2 -20 -33 235 0
-33 37 -235 236 0
37 49 -236 237 0
49 -52 -237 238 0
-52 58 -238 239 0
58 -64 84 -239 0
-9 85 240 241 0
-9 85 240 -241 0
-9 85 -240 241 0
-9 85 -240 -241 0
-16 -70 -90 -93 0
3 -11 -13 242 0
-13 -57 -242 243 0
-57 -87 -96 -243 0
7 -30 -34 244 0
-34 75 -244 245 0
75 86 -245 246 0
86 -87 -246 247 0
-87 -97 -100 -247 0
-23 36 -70 85 0
-14 -16 40 248 0
40 68 -248 249 0
68 -78 -249 250 0
-78 -86 -91 -250 0
-25 -28 -53 66 0
29 -69 73 251 0
29 -69 73 -251 0
-17 42 65 70 0
23 -77 252 253 0
23 -77 252 -253 0
23 -77 -252 253 0
23 -77 -252 -253 0
23 -37 -52 57 0
47 89 254 255 0
47 89 254 -255 0
47 89 -254 255 0
47 89 -254 -255 0
-12 -24 41 256 0
-12 -24 41 -256 0
3 41 -47 257 0
-47 69 -257 258 0
69 70 -82 -258 0
-11 13 -33 259 0
-33 37 -259 260 0
37 -52 -260 261 0
-52 66 -261 262 0
66 69 71 -262 0
-35 55 75 263 0
75 78 79 -263 0
-9 29 -43 65 0
-20 52 63 264 0
-20 52 63 -264 0
-36 -68 71 265 0
-36 -68 71 -265 0
-8 11 31 266 0
31 32 84 -266 0
-5 41 60 267 0
60 62 -267 268 0
62 64 99 -268 0
58 63 269 270 0
58 63 269 -270 0
58 63 -269 270 0
58 63 -269 -270 0
-8 -36 -49 -59 0
19 30 87 -96 0
-18 24 -60 271 0
-18 24 -60 -271 0
14 33 34 272 0
34 -69 -272 273 0
-69 78 88 -273 0
-10 21 -26 274 0
-26 -45 -274 275 0
-45 47 -275 276 0
47 52 -58 -276 0
55 -57 -90 277 0
55 -57 -90 -277 0
37 39 -54 278 0
-54 56 92 -278 0
-62 -84 -94 279 0
-62 -84 -94 -279 0
13 -57 -80 -95 0
-39 -52 74 280 0
-39 -52 74 -280 0
15 -16 -30 281 0
-30 40 -281 282 0
40 -71 -282 283 0
-71 -73 -283 284 0
-73 -96 -284 285 0
-96 98 -99 -285 0
16 25 -37 286 0
-37 -41 77 -286 0
10 -13 -58 89 0
11 22 25 54 0
-8 -13 100 287 0
-8 -13 100 -287 0
79 -93 97 288 0
79 -93 97 -288 0
18 19 -35 289 0
-35 39 -289 290 0
39 41 -290 291 0
41 62 -291 292 0
62 -69 -292 293 0
-69 -78 -293 294 0
-78 -95 -100 -294 0
10 47 62 295 0
10 47 62 -295 0
-28 -53 64 296 0
64 65 -296 297 0
65 -80 -83 -297 0
42 45 67 298 0
67 -82 -91 -298 0
42 -63 75 -76 0
28 -34 -46 299 0
-46 -67 -299 300 0
-67 69 -300 301 0
69 70 -301 302 0
70 -72 -302 303 0
-72 74 -303 304 0
74 75 -304 305 0
75 -77 -82 -305 0
-20 41 -62 306 0
-20 41 -62 -306 0
3 -21 307 308 0
3 -21 307 -308 0
3 -21 -307 308 0
3 -21 -307 -308 0
-5 13 14 309 0
14 33 -309 310 0
33 48 -310 311 0
48 -71 -311 312 0
-71 -80 92 -312 0
19 -55 313 314 0
19 -55 313 -314 0
19 -55 -313 314 0
19 -55 -313 -314 0
3 20 -48 315 0
-48 66 -84 -315 0
4 41 58 -98 0
1 23 37 316 0
37 -52 -316 317 0
-52 -68 -76 -317 0
52 -56 -95 318 0
52 -56 -95 -318 0
-17 -24 319 320 0
-17 -24 319 -320 0
-17 -24 -319 320 0
-17 -24 -319 -320 0
42 56 -67 78 0
12 44 -90 -95 0
25 32 41 321 0
41 43 -321 322 0
43 48 -322 323 0
48 59 -323 324 0
59 -73 -324 325 0
-73 -76 86 -325 0
7 -17 -44 326 0
-44 52 61 -326 0
6 -23 28 327 0
28 -48 -327 328 0
-48 -79 -328 329 0
-79 -88 -329 330 0
-88 99 100 -330 0
6 10 -39 331 0
-39 -71 -331 332 0
-71 90 -95 -332 0
11 -23 48 -65 0
13 46 -79 -92 0
1 15 -21 333 0
-21 24 -333 334 0
24 42 -334 335 0
42 -44 -94 -335 0
29 91 336 337 0
29 91 336 -337 0
29 91 -336 337 0
29 91 -336 -337 0
-42 -80 100 338 0
-42 -80 100 -338 0
62 63 -68 339 0
-68 -82 -339 340 0
-82 90 -92 -340 0
4 46 74 341 0
4 46 74 -341 0
6 11 -24 342 0
-24 28 -342 343 0
28 -50 -343 344 0
-50 54 -344 345 0
54 -86 97 -345 0
-46 69 -84 346 0
-84 -89 -93 -346 0
-10 -47 71 -78 0
8 44 -47 347 0
-47 54 -347 348 0
54 89 -99 -348 0
-5 88 90 349 0
-5 88 90 -349 0
13 16 -43 350 0
-43 49 74 -350 0
2 -12 63 351 0
2 -12 63 -351 0
18 -99 352 353 0
18 -99 352 -353 0
18 -99 -352 353 0
18 -99 -352 -353 0
6 21 28 354 0
28 -33 -354 355 0
-33 86 87 -355 0
-45 85 91 356 0
-45 85 91 -356 0
-3 -44 47 357 0
47 -68 -85 -357 0
-5 -9 -58 358 0
-58 77 -358 359 0
77 82 91 -359 0
8 13 -28 360 0
-28 -54 -360 361 0
-54 65 -361 362 0
65 67 -362 363 0
67 -88 -363 364 0
-88 -90 99 -364 0
-28 -57 365 366 0
-28 -57 365 -366 0
-28 -57 -365 366 0
-28 -57 -365 -366 0
38 66 93 367 0
38 66 93 -367 0
-5 -15 -38 368 0
-38 45 -368 369 0
45 -51 82 -369 0
39 -43 370 371 0
39 -43 370 -371 0
39 -43 -370 371 0
39 -43 -370 -371 0
4 5 -40 372 0
-40 71 -372 373 0
71 74 -373 374 0
74 -81 87 -374 0
12 13 -20 375 0
-20 -25 -375 376 0
-25 -31 90 -376 0
6 -7 -44 377 0
-44 53 -377 378 0
53 -56 -378 379 0
-56 -80 -84 -379 0
-21 -27 -40 380 0
-40 67 -380 381 0
67 69 -381 382 0
69 86 -99 -382 0
6 13 -14 383 0
-14 52 -383 384 0
52 -62 -384 385 0
-62 78 -89 -385 0
-7 -22 -26 386 0
-26 -31 -61 -386 0
-24 -38 -42 387 0
-42 -46 -387 388 0
-46 56 -388 389 0
56 -75 -389 390 0
-75 -95 100 -390 0
9 16 -27 391 0
-27 -56 -391 392 0
-56 58 98 -392 0
-26 -29 42 393 0
-26 -29 42 -393 0
38 -43 50 394 0
50 51 -394 395 0
51 86 -99 -395 0
-5 25 27 396 0
27 40 -396 397 0
40 41 -397 398 0
41 57 -398 399 0
57 61 -399 400 0
61 -67 -91 -400 0
20 33 36 401 0
36 38 -401 402 0
38 -52 -402 403 0
-52 -69 95 -403 0
-9 -32 -38 404 0
-9 -32 -38 -404 0
21 22 -28 405 0
-28 49 -68 -405 0
18 44 -57 406 0
-57 -67 -78 -406 0
-1 9 31 407 0
31 37 80 -407 0
5 -46 -53 80 0
37 -50 -73 -92 0
-11 35 36 -47 0
9 -14 21 408 0
21 48 -408 409 0
48 -49 -409 410 0
-49 -60 -410 411 0
-60 -75 -411 412 0
-75 -78 -99 -412 0
-1 -37 -42 413 0
-42 48 -413 414 0
48 49 77 -414 0
57 -86 89 -98 0
-46 51 80 415 0
80 -95 99 -415 0
33 -55 64 416 0
64 -65 -68 -416 0
-70 80 417 418 0
-70 80 417 -418 0
-70 80 -417 418 0
-70 80 -417 -418 0
3 -4 21 419 0
21 22 -419 420 0
22 33 -420 421 0
33 41 -421 422 0
41 -49 -422 423 0
-49 -56 -95 -423 0
-17 21 -29 424 0
-29 32 -424 425 0
32 -33 -425 426 0
-33 67 79 -426 0
-33 49 67 -73 0
52 -74 -78 -90 0
14 -27 44 68 0
-10 -19 51 427 0
-10 -19 51 -427 0
-23 -25 31 79 0
-20 -26 61 428 0
-20 -26 61 -428 0
8 9 -12 429 0
-12 -22 -429 430 0
-22 37 -430 431 0
37 -48 -431 432 0
-48 87 -432 433 0
87 88 -97 -433 0
2 57 81 98 0
11 51 -90 434 0
-90 93 -99 -434 0
1 -8 17 435 0
17 -24 -435 436 0
-24 48 -436 437 0
48 57 -95 -437 0
-3 6 12 438 0
12 -19 -438 439 0
-19 -22 -439 440 0
-22 43 -440 441 0
43 -51 -441 442 0
-51 -68 86 -442 0
-4 7 -10 443 0
-10 -40 -443 444 0
-40 77 -81 -444 0
-15 -55 58 445 0
58 -70 -445 446 0
-70 83 -88 -446 0
3 42 54 447 0
54 -76 -447 448 0
-76 -85 -448 449 0
-85 96 -97 -449 0
7 34 -62 64 0
5 -42 -71 -97 0
-12 -90 450 451 0
-12 -90 450 -451 0
-12 -90 -450 451 0
-12 -90 -450 -451 0
9 -23 -35 452 0
-35 64 -70 -452 0
-3 -17 23 453 0
23 30 -453 454 0
30 57 -454 455 0
57 -61 -455 456 0
-61 -80 -89 -456 0
-57 65 457 458 0
-57 65 457 -458 0
-57 65 -457 458 0
-57 65 -457 -458 0
-51 64 89 459 0
-51 64 89 -459 0
-2 18 33 460 0
33 -39 -460 461 0
-39 -49 56 -461 0
-4 28 64 74 0
-5 -10 81 -82 0
-43 -94 462 463 0
-43 -94 462 -463 0
-43 -94 -462 463 0
-43 -94 -462 -463 0
-12 -88 464 465 0
-12 -88 464 -465 0
-12 -88 -464 465 0
-12 -88 -464 -465 0
14 32 84 -97 0
-8 -14 37 466 0
37 42 -466 467 0
42 58 -467 468 0
58 60 -468 469 0
60 -68 -469 470 0
-68 -86 -470 471 0
-86 89 -99 -471 0
39 44 59 -96 0
-13 99 472 473 0
-13 99 472 -473 0
-13 99 -472 473 0
-13 99 -472 -473 0
12 57 -77 474 0
-77 91 -93 -474 0
99 -100 475 476 0
99 -100 475 -476 0
99 -100 -475 476 0
99 -100 -475 -476 0
-5 8 10 -31 0
21 32 -34 477 0
-34 -38 -477 478 0
-38 65 -478 479 0
65 81 83 -479 0
-5 9 -26 480 0
-26 39 -480 481 0
39 88 -93 -481 0
-31 -66 482 483 0
-31 -66 482 -483 0
-31 -66 -482 483 0
-31 -66 -482 -483 0
-51 -63 83 -93 0
46 -82 -91 97 0
1 14 -34 484 0
-34 -43 -484 485 0
-43 -50 -485 486 0
-50 54 -486 487 0
54 -67 -487 488 0
-67 91 93 -488 0
-5 -16 -33 489 0
-33 36 -51 -489 0
-26 -76 490 491 0
-26 -76 490 -491 0
-26 -76 -490 491 0
-26 -76 -490 -491 0
-27 47 -52 492 0
-52 55 -94 -492 0
9 -19 23 493 0
23 26 -493 494 0
26 -28 -494 495 0
-28 -37 -495 496 0
-37 -63 -496 497 0
-63 -74 85 -497 0
12 17 24 498 0
24 -73 -498 499 0
-73 78 -91 -499 0
18 56 500 501 0
18 56 500 -501 0
18 56 -500 501 0
18 56 -500 -501 0
-21 31 49 502 0
49 56 57 -502 0
8 11 18 503 0
18 -51 -503 504 0
-51 54 -504 505 0
54 -67 -84 -505 0
-5 -7 -46 100 0
-8 -13 16 506 0
16 30 -506 507 0
30 -41 -507 508 0
-41 63 -508 509 0
63 82 -88 -509 0
2 8 -24 -83 0
-15 -41 56 510 0
56 -81 99 -510 0
6 -8 41 511 0
41 52 -86 -511 0
15 16 57 -71 0
11 23 45 512 0
45 54 94 -512 0
10 -13 55 96 0
-39 -43 513 514 0
-39 -43 513 -514 0
-39 -43 -513 514 0
-39 -43 -513 -514 0
47 78 -95 515 0
47 78 -95 -515 0
-29 51 -74 516 0
-74 -78 -90 -516 0
16 19 22 517 0
22 -25 -517 518 0
-25 -69 -518 519 0
-69 71 -519 520 0
71 -72 -520 521 0
-72 82 -521 522 0
82 -86 -522 523 0
-86 -89 93 -523 0
31 -42 -53 92 0
32 50 -55 524 0
32 50 -55 -524 0
3 -20 -59 525 0
-59 64 -525 526 0
64 68 -526 527 0
68 -80 -527 528 0
-80 82 86 -528 0
-4 -23 40 529 0
40 -65 -529 530 0
-65 87 91 -530 0
33 43 -52 531 0
33 43 -52 -531 0
29 33 -36 -84 0
33 -48 59 532 0
59 65 -532 533 0
65 68 -533 534 0
68 70 -534 535 0
70 -84 -100 -535 0
-7 -12 -19 536 0
-19 -38 -536 537 0
-38 -62 -537 538 0
-62 -67 -80 -538 0
44 49 -52 -65 0
33 -35 -38 539 0
-38 -59 -82 -539 0
14 -24 71 540 0
14 -24 71 -540 0
18 26 90 541 0
18 26 90 -541 0
64 65 -80 542 0
64 65 -80 -542 0
32 -41 62 78 0
23 -35 39 543 0
39 41 -543 544 0
41 -44 52 -544 0
33 39 -76 545 0
33 39 -76 -545 0
-24 -98 546 547 0
-24 -98 546 -547 0
-24 -98 -546 547 0
-24 -98 -546 -547 0
-2 -12 23 548 0
23 24 -548 549 0
24 -65 -549 550 0
-65 -69 -550 551 0
-69 -73 100 -551 0
3 -24 37 552 0
3 -24 37 -552 0
20 54 -59 553 0
-59 -76 -553 554 0
-76 83 -554 555 0
83 88 -93 -555 0
40 -42 -47 556 0
-47 51 -556 557 0
51 57 -557 558 0
57 68 77 -558 0
11 -29 -42 559 0
-42 46 -559 560 0
46 58 -560 561 0
58 -61 -561 562 0
-61 67 -562 563 0
67 -73 93 -563 0
-2 -18 94 564 0
-2 -18 94 -564 0
-5 -25 -79 -99 0
-6 -9 12 565 0
12 -20 -565 566 0
-20 -22 -566 567 0
-22 -66 -96 -567 0
16 -39 -43 568 0
-43 84 -568 569 0
84 95 -96 -569 0
-32 45 -79 94 0
-23 -25 49 570 0
49 77 -570 571 0
77 -87 -571 572 0
-87 -95 -100 -572 0
-34 -37 -62 75 0
38 -78 82 573 0
38 -78 82 -573 0
-26 51 74 79 0
32 -86 574 575 0
32 -86 574 -575 0
32 -86 -574 575 0
32 -86 -574 -575 0
32 -46 -61 66 0
56 98 576 577 0
56 98 576 -577 0
56 98 -576 577 0
56 98 -576 -577 0
-21 -33 50 578 0
-21 -33 50 -578 0
12 50 -56 579 0
-56 78 -579 580 0
78 79 -91 -580 0
-20 22 -42 581 0
-42 46 -581 582 0
46 -61 -582 583 0
-61 75 -583 584 0
75 78 80 -584 0
-44 64 84 585 0
84 87 88 -585 0
-18 38 -52 74 0
-29 61 72 586 0
-29 61 72 -586 0
-45 -77 80 587 0
-45 -77 80 -587 0
8 -17 20 588 0
20 40 -588 589 0
40 41 93 -589 0
-14 50 69 590 0
69 71 73 -590 0
67 72 591 592 0
67 72 591 -592 0
67 72 -591 592 0
67 72 -591 -592 0
-5 -17 -45 593 0
-45 -58 -68 -593 0
28 39 96 594 0
28 39 96 -594 0
-27 33 -69 595 0
-27 33 -69 -595 0
23 42 43 596 0
43 -78 -596 597 0
-78 87 97 -597 0
-19 30 -35 598 0
-35 -54 -598 599 0
-54 56 -599 600 0
56 61 -67 -600 0
1 64 -66 -99 0
-3 46 48 601 0
48 -63 65 -601 0
-4 -71 -93 602 0
-4 -71 -93 -602 0
22 -66 -89 603 0
22 -66 -89 -603 0
-48 -61 83 604 0
-48 -61 83 -604 0
-5 7 -8 605 0
-5 7 -8 -605 0
24 -25 -39 606 0
-39 49 -606 607 0
49 -80 -82 -607 0
25 34 -46 608 0
-46 -50 86 -608 0
19 -22 -67 98 0
9 20 31 609 0
31 34 63 -609 0
-2 6 -17 -22 0
-4 -9 88 610 0
-4 -9 88 -610 0
27 28 -44 611 0
-44 48 -611 612 0
48 50 -612 613 0
50 71 -613 614 0
71 -78 -87 -614 0
19 56 71 615 0
19 56 71 -615 0
-37 -62 73 616 0
73 74 -616 617 0
74 -89 -92 -617 0
51 54 76 618 0
76 -91 -100 -618 0
51 -72 84 -85 0
37 -43 -55 619 0
-55 -76 -619 620 0
-76 78 -620 621 0
78 79 -621 622 0
79 -81 -622 623 0
-81 83 -623 624 0
83 84 -624 625 0
84 -86 -91 -625 0
-29 50 -71 626 0
-29 50 -71 -626 0
1 12 -30 627 0
1 12 -30 -627 0
-14 22 23 628 0
23 42 -628 629 0
42 57 -629 630 0
57 -80 -89 -630 0
28 -64 631 632 0
28 -64 631 -632 0
28 -64 -631 632 0
28 -64 -631 -632 0
-7 12 29 633 0
29 -57 -633 634 0
-57 75 -93 -634 0
13 50 67 635 0
13 50 67 -635 0
-4 10 32 636 0
32 46 -636 637 0
46 -61 -637 638 0
-61 -77 -85 -638 0
61 -65 639 640 0
61 -65 639 -640 0
61 -65 -639 640 0
61 -65 -639 -640 0
-26 -33 641 642 0
-26 -33 641 -642 0
-26 -33 -641 642 0
-26 -33 -641 -642 0
-4 51 65 643 0
65 -76 87 -643 0
21 53 -99 644 0
21 53 -99 -644 0
34 41 50 645 0
50 52 -645 646 0
52 57 -646 647 0
57 68 -647 648 0
68 -82 -648 649 0
-82 -85 95 -649 0
8 9 16 650 0
16 -26 -650 651 0
-26 -53 -651 652 0
-53 61 70 -652 0
-4 15 -32 653 0
-32 37 -653 654 0
37 -57 -654 655 0
-57 -88 -97 -655 0
15 19 -48 656 0
-48 -80 99 -656 0
-1 20 -32 657 0
-32 57 -74 -657 0
-3 22 55 -88 0
10 24 -30 658 0
-30 33 -658 659 0
33 51 -53 -659 0
9 38 100 660 0
9 38 100 -660 0
-1 -51 -89 661 0
-1 -51 -89 -661 0
71 72 -77 662 0
-77 -91 99 -662 0
13 55 83 663 0
13 55 83 -663 0
-2 15 20 664 0
20 -33 -664 665 0
-33 37 -665 666 0
37 -59 -666 667 0
-59 63 -95 -667 0
-55 78 -93 -98 0
-8 -19 -56 668 0
-56 80 -87 -668 0
17 53 -56 669 0
-56 63 98 -669 0
-14 97 99 670 0
-14 97 99 -670 0
22 25 -52 671 0
-52 58 83 -671 0
-8 11 -21 72 0
15 30 37 672 0
37 -42 -672 673 0
-42 95 96 -673 0
-54 94 100 674 0
-54 94 100 -674 0
-12 -53 56 675 0
56 -77 -94 -675 0
8 -14 -18 676 0
-18 -67 -676 677 0
-67 86 -677 678 0
86 91 100 -678 0
17 22 -37 679 0
-37 -63 -679 680 0
-63 74 -680 681 0
74 76 -681 682 0
76 -97 -99 -682 0
2 -37 -66 683 0
2 -37 -66 -683 0
47 75 684 685 0
47 75 684 -685 0
47 75 -684 685 0
47 75 -684 -685 0
-14 -24 -47 686 0
-47 54 -686 687 0
54 -60 91 -687 0
48 -52 688 689 0
48 -52 688 -689 0
48 -52 -688 689 0
48 -52 -688 -689 0
13 14 -49 690 0
-49 80 -690 691 0
80 83 -691 692 0
83 -90 96 -692 0
21 22 -29 693 0
-29 -34 -693 694 0
-34 -40 99 -694 0
-8 15 -16 695 0
-16 -53 -695 696 0
-53 62 -696 697 0
62 -65 -697 698 0
-65 -89 -93 -698 0
-30 -36 -49 699 0
-49 76 -699 700 0
76 78 95 -700 0
15 22 -23 701 0
-23 61 -701 702 0
61 -71 -702 703 0
-71 87 -98 -703 0
-4 9 -16 704 0
-16 -31 -704 705 0
-31 -35 -705 706 0
-35 -40 -70 -706 0
7 -33 -47 707 0
-47 -51 -707 708 0
-51 -55 -708 709 0
-55 65 -84 -709 0
18 25 -36 710 0
-36 -65 67 -710 0
-8 -35 -38 51 0
47 -52 59 711 0
59 60 95 -711 0
4 -14 34 712 0
34 36 -712 713 0
36 49 -713 714 0
49 50 -714 715 0
50 66 -715 716 0
66 70 -716 717 0
70 -76 -100 -717 0
29 42 45 718 0
45 47 -718 719 0
47 -61 -78 -719 0
-18 -41 -47 720 0
-18 -41 -47 -720 0
30 31 -37 721 0
-37 58 -77 -721 0
27 53 -66 722 0
-66 -76 -87 -722 0
-10 18 40 723 0
40 46 89 -723 0
-1 14 -55 724 0
-55 -62 89 -724 0
46 -59 -82 725 0
46 -59 -82 -725 0
-8 -20 44 726 0
44 45 -56 -726 0
18 -23 30 727 0
30 57 -727 728 0
57 -58 -728 729 0
-58 -69 -729 730 0
-69 -84 -87 -730 0
-7 -10 -46 731 0
-46 -51 -731 732 0
-51 57 -732 733 0
57 58 86 -733 0
-4 8 66 734 0
66 -95 98 -734 0
-55 60 89 735 0
-55 60 89 -735 0
42 -64 73 736 0
73 -74 -77 -736 0
-4 -79 89 737 0
-4 -79 89 -737 0
12 -13 30 738 0
30 31 -738 739 0
31 42 -739 740 0
42 50 -740 741 0
50 -58 -65 -741 0
-26 30 -38 742 0
-38 41 -742 743 0
41 -42 -743 744 0
-42 76 88 -744 0
-42 58 76 -82 0
61 -83 -87 -99 0
23 -36 53 77 0
-19 -28 60 745 0
-19 -28 60 -745 0
-32 -34 40 88 0
-6 -29 -35 70 0
7 17 18 746 0
18 -21 -746 747 0
-21 -31 -747 748 0
-31 46 -748 749 0
46 -57 -749 750 0
-57 96 97 -750 0
2 -8 11 751 0
11 66 90 -751 0
-4 20 60 -99 0
10 -17 26 752 0
26 -33 -752 753 0
-33 57 66 -753 0
-12 15 21 754 0
21 -28 -754 755 0
-28 -31 -755 756 0
-31 52 -756 757 0
52 -60 -757 758 0
-60 -77 95 -758 0
-13 16 -19 759 0
-19 -49 -759 760 0
-49 86 -90 -760 0
5 -6 -24 761 0
-24 -64 -761 762 0
-64 67 -762 763 0
67 -79 -763 764 0
-79 92 -97 -764 0
12 51 63 765 0
63 -85 -94 -765 0
16 43 -71 73 0
-6 61 766 767 0
-6 61 766 -767 0
-6 61 -766 767 0
-6 61 -766 -767 0
14 -51 -80 768 0
14 -51 -80 -768 0
-21 -99 769 770 0
-21 -99 769 -770 0
-21 -99 -769 770 0
-21 -99 -769 -770 0
18 -32 -44 771 0
-44 73 -79 -771 0
-12 -26 32 772 0
32 39 -772 773 0
39 66 -773 774 0
66 -70 -774 775 0
-70 -89 -98 -775 0
-66 74 776 777 0
-66 74 776 -777 0
-66 74 -776 777 0
-66 74 -776 -777 0
-60 73 98 778 0
-60 73 98 -778 0
-11 27 42 779 0
42 -48 -779 780 0
-48 -58 65 -780 0
-13 37 73 83 0
-3 -14 -19 781 0
-19 90 -91 -781 0
-6 -21 -97 782 0
-6 -21 -97 -782 0
-8 23 41 93 0
-5 -17 -23 783 0
-23 46 -783 784 0
46 51 -784 785 0
51 67 -785 786 0
67 69 -786 787 0
69 -77 -787 788 0
-77 -95 98 -788 0
8 48 53 68 0
-2 -22 789 790 0
-2 -22 789 -790 0
-2 -22 -789 790 0
-2 -22 -789 -790 0
8 -9 21 791 0
21 66 -791 792 0
66 -86 100 -792 0
-14 17 19 -40 0
-2 30 41 793 0
41 -43 -793 794 0
-43 -47 -794 795 0
-47 74 -795 796 0
74 90 92 -796 0
-14 18 -35 797 0
-35 48 97 -797 0
-2 -40 -75 798 0
-2 -40 -75 -798 0
6 -60 -72 92 0
2 55 -91 -100 0
10 23 -43 799 0
-43 -52 -799 800 0
-52 -59 -800 801 0
-59 63 -801 802 0
63 -76 100 -802 0
-14 -25 -42 803 0
-42 45 -60 -803 0
-3 -35 -85 804 0
-3 -35 -85 -804 0
-36 56 -61 64 0
18 -28 32 805 0
32 35 -805 806 0
35 -37 -806 807 0
-37 -46 -807 808 0
-46 -72 -808 809 0
-72 -83 94 -809 0
21 26 33 810 0
33 -82 -810 811 0
-82 87 -100 -811 0
27 65 812 813 0
27 65 812 -813 0
27 65 -812 813 0
27 65 -812 -813 0
-30 40 58 814 0
58 65 66 -814 0
9 17 20 815 0
20 27 -815 816 0
27 -60 -816 817 0
-60 63 -817 818 0
63 -76 -93 -818 0
-14 -16 -55 819 0
-14 -16 -55 -819 0
-17 -22 25 820 0
25 39 -820 821 0
39 -50 -821 822 0
-50 72 -822 823 0
72 91 -97 -823 0
8 11 17 824 0
17 -33 -92 -824 0
-24 -50 65 -90 0
15 -17 50 825 0
50 61 -95 -825 0
3 24 25 826 0
25 66 -80 -826 0
5 20 32 827 0
32 54 63 -827 0
19 -22 64 828 0
19 -22 64 -828 0
-4 -48 -52 829 0
-4 -48 -52 -829 0
56 87 830 831 0
56 87 830 -831 0
56 87 -830 831 0
56 87 -830 -831 0
2 -38 60 832 0
60 -83 -832 833 0
-83 -87 -99 -833 0
1 25 28 834 0
28 31 -834 835 0
31 -34 -835 836 0
-34 -78 -836 837 0
-78 80 -837 838 0
80 -81 -838 839 0
-81 91 -839 840 0
91 -95 -98 -840 0
40 -51 -62 841 0
40 -51 -62 -841 0
41 59 -64 842 0
41 59 -64 -842 0
12 -29 -68 843 0
-68 73 -843 844 0
73 77 -844 845 0
77 -89 -845 846 0
-89 91 95 -846 0
-13 -32 49 847 0
49 -74 -847 848 0
-74 96 100 -848 0
42 52 -61 849 0
42 52 -61 -849 0
38 42 -45 -93 0
-9 77 850 851 0
-9 77 850 -851 0
-9 77 -850 851 0
-9 77 -850 -851 0
42 -57 68 852 0
68 74 -852 853 0
74 77 -853 854 0
77 79 -93 -854 0
-16 -21 -28 855 0
-28 -47 -855 856 0
-47 -71 -856 857 0
-71 -76 -89 -857 0
53 58 -61 -74 0
42 -44 -47 858 0
-47 -68 -91 -858 0
23 -33 80 859 0
23 -33 80 -859 0
27 35 99 860 0
27 35 99 -860 0
73 74 -89 861 0
73 74 -89 -861 0
41 -50 71 87 0
32 -44 48 862 0
48 50 -862 863 0
50 -53 61 -863 0
-7 42 48 -85 0
9 -33 864 865 0
9 -33 864 -865 0
9 -33 -864 865 0
9 -33 -864 -865 0
-11 -21 32 866 0
32 33 -866 867 0
33 -74 -867 868 0
-74 -78 -82 -868 0
-2 12 -33 46 0
29 63 -68 869 0
-68 -85 -869 870 0
-85 92 97 -870 0
2 49 -51 871 0
-51 -56 -871 872 0
-56 60 -872 873 0
60 66 -873 874 0
66 77 86 -874 0
3 20 -38 875 0
-38 -51 -875 876 0
-51 55 -876 877 0
55 67 -877 878 0
67 -70 -878 879 0
-70 76 -82 -879 0
-8 -11 -27 880 0
-8 -11 -27 -880 0
-5 -14 -34 -88 0
4 -5 -15 881 0
-15 -18 -881 882 0
-18 21 -882 883 0
21 -29 -883 884 0
-29 -31 -75 -884 0
3 25 -48 885 0
-48 -52 93 -885 0
-4 -9 -41 886 0
-41 54 -88 -886 0
-32 -34 58 887 0
58 86 -96 -887 0
-43 -46 -71 84 0
47 -87 91 888 0
47 -87 91 -888 0
-35 60 83 88 0
41 -95 889 890 0
41 -95 889 -890 0
41 -95 -889 890 0
41 -95 -889 -890 0
7 41 -55 891 0
-55 -70 75 -891 0
-30 -42 59 892 0
-30 -42 59 -892 0
21 59 -65 893 0
-65 87 -893 894 0
87 88 -100 -894 0
-29 31 -51 895 0
-51 55 -895 896 0
55 -70 -896 897 0
-70 84 -897 898 0
84 87 89 -898 0
-53 73 93 899 0
93 96 97 -899 0
-27 47 -61 83 0
-38 70 81 900 0
-38 70 81 -900 0
2 -54 -86 89 0
17 -26 29 901 0
29 49 50 -901 0
-23 59 78 902 0
78 80 82 -902 0
76 81 903 904 0
76 81 903 -904 0
76 81 -903 904 0
76 81 -903 -904 0
5 -14 -26 905 0
-26 -54 -905 906 0
-54 -67 -77 -906 0
37 48 907 908 0
37 48 907 -908 0
37 48 -907 908 0
37 48 -907 -908 0
6 -36 42 -78 0
32 51 52 909 0
52 -87 96 -909 0
-8 -28 39 910 0
39 -44 -910 911 0
-44 -63 -911 912 0
-63 65 -912 913 0
65 70 -76 -913 0
10 73 -75 914 0
10 73 -75 -914 0
-2 -12 55 915 0
55 57 -915 916 0
57 -72 74 -916 0
-13 -80 917 918 0
-13 -80 917 -918 0
-13 -80 -917 918 0
-13 -80 -917 -918 0
31 -75 -98 919 0
31 -75 -98 -919 0
-57 -70 92 920 0
-57 -70 92 -920 0
-14 16 -17 921 0
-14 16 -17 -921 0
33 -34 -48 922 0
-48 58 -922 923 0
58 -89 -91 -923 0
7 34 43 924 0
43 -55 -924 925 0
-55 -59 95 -925 0
28 -31 -76 926 0
28 -31 -76 -926 0
18 29 40 927 0
40 43 72 -927 0
-11 15 -26 -31 0
-13 -18 97 928 0
-13 -18 97 -928 0
36 37 -53 929 0
-53 57 -929 930 0
57 59 -930 931 0
59 80 -931 932 0
80 -87 -96 -932 0
-1 28 65 80 0
-9 -46 -71 933 0
-71 82 -933 934 0
82 83 -98 -934 0
60 63 85 -100 0
60 -81 93 -94 0
46 -52 -64 935 0
-64 -85 -935 936 0
-85 87 -936 937 0
87 88 -937 938 0
88 -90 -938 939 0
-90 92 -939 940 0
92 93 -940 941 0
93 -95 -100 -941 0
-38 59 -80 942 0
-38 59 -80 -942 0
10 21 -39 943 0
10 21 -39 -943 0
-23 31 32 944 0
32 51 -944 945 0
51 66 -945 946 0
66 -89 -98 -946 0
-2 37 -73 947 0
-2 37 -73 -947 0
-16 21 38 948 0
38 -66 84 -948 0
22 59 76 949 0
22 59 76 -949 0
-13 19 41 950 0
41 55 -950 951 0
55 -70 -951 952 0
-70 -86 -94 -952 0
70 -74 953 954 0
70 -74 953 -954 0
70 -74 -953 954 0
70 -74 -953 -954 0
-35 -42 955 956 0
-35 -42 955 -956 0
-35 -42 -955 956 0
-35 -42 -955 -956 0
-8 -13 60 957 0
60 74 -957 958 0
74 -85 96 -958 0
4 30 62 959 0
4 30 62 -959 0
43 50 59 960 0
59 61 -960 961 0
61 66 -961 962 0
66 77 -962 963 0
77 -91 -94 -963 0
-6 17 18 964 0
18 25 -964 965 0
25 -35 -965 966 0
-35 -62 -966 967 0
-62 70 79 -967 0
8 -13 24 968 0
24 -41 -968 969 0
-41 46 -969 970 0
46 -66 -97 -970 0
24 28 -57 -89 0
-10 29 -41 971 0
-41 66 -83 -971 0
-12 31 64 -97 0
9 19 33 972 0
33 -39 -972 973 0
-39 42 -973 974 0
42 60 -62 -974 0
18 47 975 976 0
18 47 975 -976 0
18 47 -975 976 0
18 47 -975 -976 0
8 -10 -60 -98 0
80 81 -86 -100 0
22 64 92 977 0
22 64 92 -977 0
-4 15 978 979 0
-4 15 978 -979 0
-4 15 -978 979 0
-4 15 -978 -979 0
-2 -7 -11 980 0
-11 24 -980 981 0
24 29 -981 982 0
29 -42 -982 983 0
-42 46 -983 984 0
46 -68 72 -984 0
-64 87 985 986 0
-64 87 985 -986 0
-64 87 -985 986 0
-64 87 -985 -986 0
7 -17 -28 987 0
-28 -65 -987 988 0
-65 89 -96 -988 0
6 8 26 989 0
26 62 -989 990 0
62 -65 72 -990 0
31 34 -61 991 0
-61 67 92 -991 0
-17 20 -30 81 0
4 5 36 992 0
4 5 36 -992 0
3 9 24 993 0
24 39 -993 994 0
39 46 -51 -994 0
-3 -63 995 996 0
-3 -63 995 -996 0
-3 -63 -995 996 0
-3 -63 -995 -996 0
9 -21 -62 997 0
-62 65 -86 -997 0
-6 -8 17 998 0
17 -23 -998 999 0
-23 -27 -999 1000 0
-27 -76 -1000 1001 0
-76 95 100 -1001 0
26 31 -46 1002 0
-46 -72 -1002 1003 0
-72 83 85 -1003 0
11 -46 -75 1004 0
11 -46 -75 -1004 0
56 84 1005 1006 0
56 84 1005 -1006 0
56 84 -1005 1006 0
56 84 -1005 -1006 0
-23 -33 -56 1007 0
-56 63 -1007 1008 0
63 -69 100 -1008 0
5 57 -61 1009 0
5 57 -61 -1009 0
8 22 23 1010 0
23 -58 -1010 1011 0
-58 89 -1011 1012 0
89 92 -99 -1012 0
-2 30 31 1013 0
31 -38 -1013 1014 0
-38 -43 -49 -1014 0
4 -17 24 1015 0
24 -25 -1015 1016 0
-25 -62 -1016 1017 0
-62 71 -1017 1018 0
71 -74 -98 -1018 0
-7 -39 -45 1019 0
-45 -58 -1019 1020 0
-58 85 87 -1020 0
24 31 -32 1021 0
-32 70 -1021 1022 0
70 -80 96 -1022 0
-13 18 -25 1023 0
-25 -40 -1023 1024 0
-40 -44 -1024 1025 0
-44 -49 -79 -1025 0
16 -42 -56 1026 0
-56 -60 -1026 1027 0
-60 -64 -1027 1028 0
-64 74 -93 -1028 0
27 34 -45 1029 0
-45 -74 76 -1029 0
4 -17 -44 1030 0
-44 -47 60 -1030 0
-9 56 -61 1031 0
-61 68 69 -1031 0
13 -23 43 1032 0
43 45 -1032 1033 0
45 58 -1033 1034 0
58 59 -1034 1035 0
59 75 -1035 1036 0
75 79 -85 -1036 0
38 51 54 1037 0
54 56 -1037 1038 0
56 -70 -87 -1038 0
-27 -50 -56 1039 0
-27 -50 -56 -1039 0
39 40 -46 1040 0
-46 67 -86 -1040 0
36 62 -75 1041 0
-75 -85 -96 -1041 0
-19 27 49 1042 0
49 55 98 -1042 0
-10 23 -64 1043 0
-64 -71 98 -1043 0
55 -68 -91 1044 0
55 -68 -91 -1044 0
-17 -29 53 1045 0
53 54 -65 -1045 0
27 -32 39 1046 0
39 66 -1046 1047 0
66 -67 -1047 1048 0
-67 -78 -1048 1049 0
-78 -93 -96 -1049 0
-4 7 -16 1050 0
-16 -19 -1050 1051 0
-19 -55 -1051 1052 0
-55 -60 -1052 1053 0
-60 66 -1053 1054 0
66 67 95 -1054 0
-13 17 75 1055 0
-13 17 75 -1055 0
-64 69 98 1056 0
-64 69 98 -1056 0
51 -73 82 1057 0
82 -83 -86 -1057 0
-13 -88 98 1058 0
-13 -88 98 -1058 0
21 -22 39 1059 0
39 40 -1059 1060 0
40 51 -1060 1061 0
51 59 -1061 1062 0
59 -67 -74 -1062 0
-35 39 -47 1063 0
-47 50 -1063 1064 0
50 -51 -1064 1065 0
-51 85 97 -1065 0
-8 -51 67 1066 0
67 85 -91 -1066 0
70 -92 -96 1067 0
70 -92 -96 -1067 0
32 -45 62 86 0
-28 -37 69 1068 0
-28 -37 69 -1068 0
-41 -43 49 97 0
5 6 -15 1069 0
-15 -38 -1069 1070 0
-38 -44 79 -1070 0
16 26 27 1071 0
27 -30 -1071 1072 0
-30 -40 -1072 1073 0
-40 55 -66 -1073 0
-8 11 -17 1074 0
-17 20 -1074 1075 0
20 75 99 -1075 0
-13 29 69 1076 0
-13 29 69 -1076 0
19 -26 35 1077 0
35 -42 -1077 1078 0
-42 66 75 -1078 0
-21 24 30 1079 0
30 -37 -1079 1080 0
-37 -40 -1080 1081 0
-40 61 -1081 1082 0
61 -69 -86 -1082 0
1 -6 -22 1083 0
-22 25 -1083 1084 0
25 -28 -1084 1085 0
-28 -58 -1085 1086 0
-58 95 -99 -1086 0
-3 14 -15 1087 0
-15 -33 -1087 1088 0
-33 -73 -1088 1089 0
-73 76 -88 -1089 0
21 60 72 -94 0
25 52 -80 82 0
-15 70 1090 1091 0
-15 70 1090 -1091 0
-15 70 -1090 1091 0
-15 70 -1090 -1091 0
-8 23 -60 -89 0
-7 27 -41 1092 0
-41 -53 -1092 1093 0
-53 82 -88 -1093 0
-21 -35 41 1094 0
41 48 -1094 1095 0
48 75 -1095 1096 0
75 -79 -98 -1096 0
7 -75 83 1097 0
7 -75 83 -1097 0
-69 82 1098 1099 0
-69 82 1098 -1099 0
-69 82 -1098 1099 0
-69 82 -1098 -1099 0
-20 36 51 1100 0
51 -57 -1100 1101 0
-57 -67 74 -1101 0
-22 46 82 92 0
-12 -23 -28 1102 0
-28 99 -100 -1102 0
-6 -61 1103 1104 0
-6 -61 1103 -1104 0
-6 -61 -1103 1104 0
-6 -61 -1103 -1104 0
2 -15 -30 1105 0
2 -15 -30 -1105 0
-4 7 -17 1106 0
-17 32 50 -1106 0
-14 -26 -32 1107 0
-32 55 -1107 1108 0
55 60 -1108 1109 0
60 76 -1109 1110 0
76 78 -86 -1110 0
17 57 62 77 0
9 -11 -31 1111 0
9 -11 -31 -1111 0
17 -18 30 1112 0
30 75 -95 -1112 0
1 -23 26 1113 0
26 28 -49 -1113 0
6 -11 39 1114 0
39 50 -1114 1115 0
50 -52 -1115 1116 0
-52 -56 -1116 1117 0
-56 83 99 -1117 0
-23 27 -44 57 0
1 -11 -49 -84 0
-9 15 -69 -81 0
9 11 64 -100 0
19 32 -52 1118 0
-52 -61 -1118 1119 0
-61 -68 -1119 1120 0
-68 72 -85 -1120 0
-23 -34 -51 1121 0
-51 54 -69 -1121 0
-12 -44 -94 1122 0
-12 -44 -94 -1122 0
3 -45 65 1123 0
65 -70 73 -1123 0
-9 27 -37 1124 0
-37 41 -1124 1125 0
41 44 -1125 1126 0
44 -46 -1126 1127 0
-46 -55 -1127 1128 0
-55 -81 -92 -1128 0
30 35 42 1129 0
42 -91 96 -1129 0
36 74 1130 1131 0
36 74 1130 -1131 0
36 74 -1130 1131 0
36 74 -1130 -1131 0
-2 -39 49 1132 0
49 67 -1132 1133 0
67 74 75 -1133 0
18 26 29 1134 0
29 36 -1134 1135 0
36 -69 -1135 1136 0
-69 72 -85 -1136 0
-6 -23 -25 -64 0
9 -26 -31 1137 0
-31 34 -1137 1138 0
34 48 -1138 1139 0
48 -59 -1139 1140 0
-59 81 100 -1140 0
17 20 26 -42 0
-4 -33 -59 1141 0
-59 74 -99 -1141 0
24 -26 59 70 0
12 33 34 1142 0
34 75 -89 -1142 0
14 29 41 1143 0
41 63 72 -1143 0
28 -31 73 1144 0
28 -31 73 -1144 0
-13 -57 -61 1145 0
-13 -57 -61 -1145 0
-8 65 96 1146 0
-8 65 96 -1146 0
-4 -7 11 1147 0
11 -47 -1147 1148 0
-47 69 -1148 1149 0
69 -92 -96 -1149 0
10 34 37 1150 0
37 40 -1150 1151 0
40 -43 -1151 1152 0
-43 -87 -1152 1153 0
-87 89 -1153 1154 0
89 -90 100 -1154 0
49 -60 -71 1155 0
49 -60 -71 -1155 0
4 50 68 -73 0
5 9 21 1156 0
21 -38 -1156 1157 0
-38 -77 -1157 1158 0
-77 82 -1158 1159 0
82 86 -1159 1160 0
86 -98 100 -1160 0
-22 -41 58 -83 0
-2 51 61 -70 0
47 51 -54 1161 0
47 51 -54 -1161 0
-2 -18 86 1162 0
-2 -18 86 -1162 0
51 -66 77 1163 0
77 83 -1163 1164 0
83 86 88 -1164 0
-25 -30 -37 1165 0
-37 -56 -1165 1166 0
-56 -80 -1166 1167 0
-80 -85 -98 -1167 0
62 67 -70 -83 0
51 -53 -56 1168 0
-56 -77 -100 -1168 0
8 32 -42 89 0
36 44 1169 1170 0
36 44 1169 -1170 0
36 44 -1169 1170 0
36 44 -1169 -1170 0
82 83 -98 1171 0
82 83 -98 -1171 0
50 -59 80 96 0
41 -53 57 1172 0
57 59 -1172 1173 0
59 -62 70 -1173 0
-16 51 57 -94 0
18 -42 1174 1175 0
18 -42 1174 -1175 0
18 -42 -1174 1175 0
18 -42 -1174 -1175 0
-20 -30 41 1176 0
41 42 -1176 1177 0
42 -83 -1177 1178 0
-83 -87 -91 -1178 0
1 6 -11 1179 0
-11 21 -1179 1180 0
21 -42 55 -1180 0
38 72 -77 -94 0
11 58 -60 1181 0
-60 -65 -1181 1182 0
-65 69 -1182 1183 0
69 75 -1183 1184 0
75 86 95 -1184 0
12 29 -47 1185 0
-47 -60 -1185 1186 0
-60 64 -1186 1187 0
64 76 -1187 1188 0
76 -79 -1188 1189 0
-79 85 -91 -1189 0
-17 -20 -36 1190 0
-17 -20 -36 -1190 0
-14 -23 -43 -97 0
2 13 -14 1191 0
-14 -24 -1191 1192 0
-24 -27 -1192 1193 0
-27 30 -1193 1194 0
30 -38 -1194 1195 0
-38 -40 -84 -1195 0
12 34 -57 -61 0
-5 -13 -18 1196 0
-18 -50 -1196 1197 0
-50 63 -97 -1197 0
-41 -43 67 95 0
-52 -55 -80 93 0
56 -96 100 1198 0
56 -96 100 -1198 0
-4 -44 69 1199 0
69 92 97 -1199 0
16 50 -64 1200 0
-64 -79 84 -1200 0
-9 -39 -51 68 0
30 68 -74 1201 0
-74 96 97 -1201 0
2 5 6 1202 0
6 -38 -1202 1203 0
-38 40 -1203 1204 0
40 -60 -1204 1205 0
-60 64 -1205 1206 0
64 -79 -1206 1207 0
-79 93 -1207 1208 0
93 96 98 -1208 0
-62 82 1209 1210 0
-62 82 1209 -1210 0
-62 82 -1209 1210 0
-62 82 -1209 -1210 0
-36 56 -70 92 0
-47 79 90 1211 0
-47 79 90 -1211 0
11 -63 -95 98 0
26 -35 38 1212 0
38 58 59 -1212 0
-32 68 87 1213 0
87 89 91 -1213 0
85 90 1214 1215 0
85 90 1214 -1215 0
85 90 -1214 1215 0
85 90 -1214 -1215 0
14 -23 -35 1216 0
-35 -63 -1216 1217 0
-63 -76 -86 -1217 0
46 57 1218 1219 0
46 57 1218 -1219 0
46 57 -1218 1219 0
46 57 -1218 -1219 0
5 15 -45 1220 0
-45 51 -87 -1220 0
41 60 61 -96 0
-17 -37 48 1221 0
48 -53 -1221 1222 0
-53 -72 -1222 1223 0
-72 74 -1223 1224 0
74 79 -85 -1224 0
19 82 -84 1225 0
19 82 -84 -1225 0
-11 -21 64 1226 0
64 66 -1226 1227 0
66 -81 83 -1227 0
-7 -22 -89 1228 0
-7 -22 -89 -1228 0
1 40 -84 1229 0
1 40 -84 -1229 0
-66 -79 1230 1231 0
-66 -79 1230 -1231 0
-66 -79 -1230 1231 0
-66 -79 -1230 -1231 0
-23 25 -26 1232 0
-23 25 -26 -1232 0
4 42 -43 1233 0
-43 -57 -1233 1234 0
-57 67 -1234 1235 0
67 -98 -100 -1235 0
16 43 52 1236 0
52 -64 -68 -1236 0
37 -40 -85 1237 0
37 -40 -85 -1237 0
27 38 49 1238 0
49 52 81 -1238 0
6 -20 24 1239 0
24 -35 -40 -1239 0
-5 -22 -27 1240 0
-5 -22 -27 -1240 0
45 46 -62 1241 0
-62 66 -1241 1242 0
66 68 -1242 1243 0
68 89 -96 -1243 0
-7 -10 37 1244 0
37 74 89 -1244 0
-9 -18 -55 1245 0
-55 -80 -1245 1246 0
-80 91 92 -1246 0
2 -3 69 1247 0
69 72 94 -1247 0
1 2 -4 1248 0
-4 -9 -1248 1249 0
-9 69 -90 -1249 0
55 -61 -73 1250 0
-73 -94 -1250 1251 0
-94 96 -1251 1252 0
96 97 -99 -1252 0
-47 68 -89 1253 0
-47 68 -89 -1253 0
-7 19 30 -48 0
-32 40 41 1254 0
41 60 -1254 1255 0
60 75 -98 -1255 0
-11 46 -82 1256 0
-11 46 -82 -1256 0
-25 30 47 1257 0
47 -75 93 -1257 0
-3 31 68 85 0
-22 28 50 1258 0
50 64 -1258 1259 0
64 -79 -95 -1259 0
79 -83 1260 1261 0
79 -83 1260 -1261 0
79 -83 -1260 1261 0
79 -83 -1260 -1261 0
5 -44 -51 1262 0
5 -44 -51 -1262 0
-17 -22 69 1263 0
69 83 -94 -1263 0
-3 13 39 71 0
52 59 68 1264 0
68 70 -1264 1265 0
70 75 -1265 1266 0
75 86 -100 -1266 0
-6 -15 26 1267 0
26 27 -1267 1268 0
27 34 -1268 1269 0
34 -44 -1269 1270 0
-44 -71 -1270 1271 0
-71 79 88 -1271 0
17 -22 33 1272 0
33 -50 -1272 1273 0
-50 55 -75 -1273 0
33 37 -66 -98 0
-6 -19 38 1274 0
38 -50 -1274 1275 0
-50 75 -92 -1275 0
-21 40 73 1276 0
-21 40 73 -1276 0
18 28 42 1277 0
42 -48 -1277 1278 0
-48 51 -1278 1279 0
51 69 -71 -1279 0
-7 27 56 1280 0
-7 27 56 -1280 0
-9 17 -19 -69 0
1 89 90 -95 0
31 73 1281 1282 0
31 73 1281 -1282 0
31 73 -1281 1282 0
31 73 -1281 -1282 0
-13 24 1283 1284 0
-13 24 1283 -1284 0
-13 24 -1283 1284 0
-13 24 -1283 -1284 0
-11 -16 -20 1285 0
-20 33 -1285 1286 0
33 38 -1286 1287 0
38 -51 -1287 1288 0
-51 55 -1288 1289 0
55 -77 81 -1289 0
-5 -73 96 1290 0
-5 -73 96 -1290 0
16 -26 -37 1291 0
-37 -74 98 -1291 0
15 17 35 1292 0
35 71 -1292 1293 0
71 -74 81 -1293 0
1 -32 1294 1295 0
1 -32 1294 -1295 0
1 -32 -1294 1295 0
1 -32 -1294 -1295 0
40 43 -70 76 0
-26 29 -39 90 0
13 14 45 1296 0
13 14 45 -1296 0
12 18 33 1297 0
33 48 -1297 1298 0
48 55 -60 -1298 0
-12 -72 1299 1300 0
-12 -72 1299 -1300 0
-12 -72 -1299 1300 0
-12 -72 -1299 -1300 0
4 9 18 1301 0
18 -30 -1301 1302 0
-30 -71 -1302 1303 0
-71 74 -95 -1303 0
-15 -17 26 1304 0
26 -32 -1304 1305 0
-32 -36 -85 -1305 0
35 40 -55 1306 0
-55 -81 -1306 1307 0
-81 92 94 -1307 0
20 -55 -84 1308 0
20 -55 -84 -1308 0
9 65 93 1309 0
9 65 93 -1309 0
-32 -42 -65 1310 0
-65 72 -78 -1310 0
1 -8 14 1311 0
14 66 -70 -1311 0
17 31 32 1312 0
32 -67 98 -1312 0
-7 -11 39 1313 0
39 40 -1313 1314 0
40 -47 -1314 1315 0
-47 -52 -58 -1315 0
13 -26 33 1316 0
33 -34 -1316 1317 0
-34 -71 -1317 1318 0
-71 80 -83 -1318 0
5 -16 -48 1319 0
-48 -54 -1319 1320 0
-54 -67 -1320 1321 0
-67 94 96 -1321 0
33 40 -41 1322 0
-41 79 -89 -1322 0
-2 -22 27 1323 0
27 -34 -1323 1324 0
-34 -49 -1324 1325 0
-49 -53 -1325 1326 0
-53 -58 -88 -1326 0
25 -51 -65 1327 0
-65 -69 -1327 1328 0
-69 -73 83 -1328 0
36 43 -54 1329 0
-54 -83 85 -1329 0
13 -26 -53 1330 0
-53 -56 69 -1330 0
-18 65 -70 1331 0
-70 77 78 -1331 0
22 -32 52 1332 0
52 54 -1332 1333 0
54 67 -1333 1334 0
67 68 -1334 1335 0
68 84 -1335 1336 0
84 88 -94 -1336 0
47 60 63 1337 0
63 65 -1337 1338 0
65 -79 -96 -1338 0
-36 -59 -65 1339 0
-36 -59 -65 -1339 0
-5 48 49 1340 0
49 -55 -1340 1341 0
-55 76 -95 -1341 0
7 45 71 1342 0
71 -84 -94 -1342 0
7 -28 36 1343 0
36 58 64 -1343 0
-19 32 -73 -80 0
64 -77 -100 1344 0
64 -77 -100 -1344 0
-2 -5 -26 1345 0
-26 -38 -1345 1346 0
-38 62 -1346 1347 0
62 63 -74 -1347 0
4 36 -41 1348 0
-41 48 -1348 1349 0
48 75 -1349 1350 0
75 -76 -87 -1350 0
-13 16 -25 1351 0
-25 -28 -1351 1352 0
-28 -64 -1352 1353 0
-64 -69 -1353 1354 0
-69 75 76 -1354 0
7 -22 26 84 0
-73 78 1355 1356 0
-73 78 1355 -1356 0
-73 78 -1355 1356 0
-73 78 -1355 -1356 0
7 60 -82 1357 0
-82 91 -1357 1358 0
91 -92 -95 -1358 0
-22 -97 1359 1360 0
-22 -97 1359 -1360 0
-22 -97 -1359 1360 0
-22 -97 -1359 -1360 0
6 30 -31 1361 0
-31 48 -1361 1362 0
48 49 -1362 1363 0
49 60 -1363 1364 0
60 68 -1364 1365 0
68 -76 -83 -1365 0
-44 48 -56 1366 0
-56 59 -1366 1367 0
59 -60 94 -1367 0
-1 -5 -17 1368 0
-17 -60 -1368 1369 0
-60 76 -1369 1370 0
76 94 -100 -1370 0
41 -54 71 95 0
6 -37 -46 78 0
-50 -52 58 1371 0
-50 -52 58 -1371 0
14 15 -24 1372 0
-24 -47 -1372 1373 0
-47 -53 88 -1373 0
8 25 35 1374 0
35 36 -1374 1375 0
36 -39 -1375 1376 0
-39 -49 -1376 1377 0
-49 64 -75 -1377 0
-17 20 -26 1378 0
-26 29 84 -1378 0
-22 38 78 1379 0
-22 38 78 -1379 0
28 -35 44 1380 0
44 -51 -1380 1381 0
-51 75 84 -1381 0
4 -8 -30 1382 0
-30 33 -1382 1383 0
33 39 -1383 1384 0
39 -46 -1384 1385 0
-46 -49 -1385 1386 0
-49 70 -1386 1387 0
70 -78 -95 -1387 0
10 -15 -31 1388 0
-31 34 -1388 1389 0
34 -37 -67 -1389 0
-3 -12 23 1390 0
23 -24 -1390 1391 0
-24 -42 -1391 1392 0
-42 -82 -1392 1393 0
-82 85 -97 -1393 0
30 69 81 1394 0
30 69 81 -1394 0
34 61 -89 91 0
-24 79 1395 1396 0
-24 79 1395 -1396 0
-24 79 -1395 1396 0
-24 79 -1395 -1396 0
-17 32 -69 -98 0
-7 -16 36 1397 0
36 -50 -1397 1398 0
-50 -62 -1398 1399 0
-62 91 -97 -1399 0
-30 -44 50 1400 0
50 57 -1400 1401 0
57 84 -88 -1401 0
16 -84 92 1402 0
16 -84 92 -1402 0
-78 91 1403 1404 0
-78 91 1403 -1404 0
-78 91 -1403 1404 0
-78 91 -1403 -1404 0
1 -29 45 1405 0
45 60 -1405 1406 0
60 -66 -1406 1407 0
-66 -76 83 -1407 0
8 -9 -31 1408 0
-31 55 91 -1408 0
-21 -32 -37 1409 0
-21 -32 -37 -1409 0
-15 -70 1410 1411 0
-15 -70 1410 -1411 0
-15 -70 -1410 1411 0
-15 -70 -1410 -1411 0
11 -24 -39 1412 0
11 -24 -39 -1412 0
-13 16 -26 1413 0
-26 41 59 -1413 0
-23 -35 -41 1414 0
-41 64 -1414 1415 0
64 69 -1415 1416 0
69 85 -1416 1417 0
85 87 -95 -1417 0
26 66 71 86 0
-4 18 -20 -40 0
26 -27 39 84 0
8 10 -32 1418 0
-32 35 -1418 1419 0
35 37 -58 -1419 0
15 -20 48 1420 0
48 59 -1420 1421 0
59 -61 -1421 1422 0
-61 -65 92 -1422 0
-32 36 -53 66 0
